
x = 50;
y = 100;
c = 5000;
n = 92;
w = [361 169 36 36 1 1 1 1 1 1 1681 81 81 81 81 25 16 1 1 1 1 196 16 16 16 4 4 1 1 1 1 1 1 1 1 1 1 1 1 4 4 4 4 4 4 4 4 4 4 4 4 4 4 4 4 4 4 1296 144 144 144 1 1 16 16 16 16 9 1 1 1 16 16 16 16 16 16 16 9 1 1 1 16 16 16 4 4 16 1 1 1 1];
p = [361 169 36 36 1 1 1 1 1 1 1681 81 81 81 81 25 16 1 1 1 1 196 16 16 16 4 4 1 1 1 1 1 1 1 1 1 1 1 1 4 4 4 4 4 4 4 4 4 4 4 4 4 4 4 4 4 4 1296 144 144 144 1 1 16 16 16 16 9 1 1 1 16 16 16 16 16 16 16 9 1 1 1 16 16 16 4 4 16 1 1 1 1];
s = [19 13 6 6 1 1 1 1 1 1 41 9 9 9 9 5 4 1 1 1 1 14 4 4 4 2 2 1 1 1 1 1 1 1 1 1 1 1 1 2 2 2 2 2 2 2 2 2 2 2 2 2 2 2 2 2 2 36 12 12 12 1 1 4 4 4 4 3 1 1 1 4 4 4 4 4 4 4 3 1 1 1 4 4 4 2 2 4 1 1 1 1];

